experiment/data/hgs-res/Vrp-Set-A-n39/Vrp-Set-A-n39-hgs/1.hgs1.vrp
NAME : 1
COMMENT : CVRP Instance
TYPE : CVRP
DIMENSION : 39
EDGE_WEIGHT_TYPE : EUC_2D
CAPACITY : 100
NODE_COORD_SECTION
1	39.0	19.0
2	79.0	19.0
3	41.0	79.0
4	25.0	31.0
5	63.0	93.0
6	33.0	5.0
7	69.0	17.0
8	57.0	73.0
9	53.0	75.0
10	1.0	1.0
11	79.0	73.0
12	59.0	5.0
13	1.0	37.0
14	41.0	31.0
15	23.0	73.0
16	37.0	27.0
17	85.0	93.0
18	93.0	13.0
19	85.0	45.0
20	49.0	91.0
21	55.0	43.0
22	83.0	29.0
23	93.0	49.0
24	87.0	23.0
25	31.0	23.0
26	19.0	97.0
27	41.0	9.0
28	83.0	61.0
29	9.0	7.0
30	13.0	13.0
31	43.0	37.0
32	13.0	61.0
33	71.0	51.0
34	45.0	93.0
35	93.0	55.0
36	5.0	97.0
37	81.0	11.0
38	7.0	53.0
39	7.0	41.0
DEMAND_SECTION
1	0
2	18
3	16
4	22
5	24
6	3
7	19
8	6
9	6
10	6
11	12
12	18
13	16
14	72
15	7
16	16
17	23
18	4
19	22
20	23
21	7
22	11
23	11
24	1
25	22
26	16
27	15
28	7
29	5
30	22
31	9
32	10
33	11
34	9
35	3
36	7
37	15
38	10
39	2
DEPOT_SECTION
1
-1
EOF
