experiment/data/hgs-res/Vrp-Set-A-n39/Vrp-Set-A-n39-hgs/1.hgs1.tour
Route #1: 11 26
Route #2: 6 1 36 17 23 21 22 34 32 20
Route #3: 18 27 10 16 4 8 7
Route #4: 15 30 13
Route #5: 2 19 33 25 35 14 31 37
Route #6: 24 3 38 12 9 28 29 5
Cost 833.205
